
Gurobi 6.5.2 (win64) logging started 07/24/16 17:32:24


Gurobi 6.5.2 (win64) logging started 07/24/16 17:32:24

Optimize a model with 2664 rows, 790 columns and 7019 nonzeros
Coefficient statistics:
  Matrix range    [6e-08, 1e+03]
  Objective range [1e+00, 1e+00]
  Bounds range    [1e+00, 1e+00]
  RHS range       [6e-06, 3e+03]
Presolve removed 2422 rows and 539 columns
Presolve time: 0.00s
Presolved: 242 rows, 251 columns, 1046 nonzeros
Variable types: 251 continuous, 0 integer (0 binary)

Root relaxation: objective 2.261947e+01, 235 iterations, 0.02 seconds

    Nodes    |    Current Node    |     Objective Bounds      |     Work
 Expl Unexpl |  Obj  Depth IntInf | Incumbent    BestBd   Gap | It/Node Time

*    0     0               0      22.6194689   22.61947  0.00%     -    0s

Explored 0 nodes (235 simplex iterations) in 0.02 seconds
Thread count was 8 (of 8 available processors)

Optimal solution found (tolerance 1.00e-04)
Best objective 2.261946890124e+01, best bound 2.261946890124e+01, gap 0.0%

Wrote requested result file 'H1\instance16\\Results16EC_Sol3.lp'

